81 24 34 43 4 18 64 33 93 17 42 14 19 57 67 73 36 11 25 87 20 70 38 10 0 72 39 74 99 85 92 60 75 52 61 63 8 27 90 12 9 30 68 86 51 46 55 47 15 58 89 13 29 62 91 53 44 80 77 84 71 54 69 66 50 1 95 98 56 78 48 21 16 2 28 76 49 7 5 32 59 97 41 40 94 23 83 82 6 45 31 26 88 79 3 65 35 22 37 96